p tw 135 149
1 2
2 48
3 14
4 127
5 6
6 7
6 18
7 8
8 9
9 10
10 11
11 12
11 18
12 13
13 15
14 40
15 16
16 17
17 40
18 19
19 20
19 38
20 21
21 22
22 23
22 38
23 24
24 26
24 31
25 36
26 27
27 28
28 29
29 30
30 40
31 32
32 33
33 34
34 35
35 37
36 42
37 40
38 39
39 40
40 41
42 43
43 44
44 45
45 46
46 47
47 51
48 59
49 50
50 51
51 52
52 53
53 54
54 55
55 56
56 57
57 58
57 60
58 40
59 70
60 61
61 62
61 66
62 63
63 64
64 65
65 68
66 67
67 68
68 69
69 71
70 81
70 49
71 72
71 75
72 73
73 74
74 75
75 76
76 77
77 78
78 79
79 80
80 82
81 92
82 83
83 84
84 85
85 86
86 87
86 111
87 88
88 89
89 90
90 91
91 93
92 103
92 25
93 94
93 95
94 40
95 96
96 97
97 98
98 99
99 100
100 101
100 105
101 102
102 104
103 114
104 105
105 106
106 107
107 108
108 109
109 110
110 82
111 112
112 113
112 116
113 115
114 125
115 118
116 117
117 118
118 119
119 120
120 121
121 122
122 123
123 124
124 126
125 3
126 127
127 128
128 129
129 130
129 5
130 131
131 132
132 133
133 134
134 135
135 4
